c defined variables: 13 25 29 33 37 41 45 49 53 57 61 65 69 73 77 81 85 89 93 97 101 105 109 113 126 136 140 144 148 152 156 160 164 168 172 176 186 193 200 204 208 215 219 223 227 234 238 248 249 251 252 253 255 256 258 259 260 261 263 264 266 267 268 271 272 274 275 278 279 282 283 286 287 289 293 294 295 297 298 300 301 302 303 304 305 307 308 310 311 312 314 315 318 320 321 323 324 325 327 328 330 331 332 333 334 336 337 339 340 341 344 345 347 349 352 353 354 356 357 359 360 361 362 363 364 365 366 367 368 369 370 371 372 373 374 375 376 377 378 379 380 381 383 384 385 386 387 388 389 391 392 393 394 395 396 397 399 400 401 402 403 404 405 406 407 408 409 410 411 412 413 414 415 416 417 418 419 420 421 422 424 425 426 427 428 429 430 431 432 433 434 435 436 437 438 439 440 441 442 443 444 446 447 448 449 450 451 452 453 454 455 456 457 458 459 460 461 462 463 464 465 467 
p cnf 1618 2004
a 237 233 230 226 68 72 56 64 48 60 40 52 32 44 309 313 244 277 281 398 288 292 296 299 306 348 343 335 329 445 338 319 423 326 322 20 36 4 8 24 16 1 28 12 358 5 351 355 21 2 9 17 241 185 182 167 171 179 175 151 155 159 163 270 390 250 254 247 265 382 257 262 192 199 189 196 211 218 203 207 214 222 104 96 100 92 88 84 76 80 112 108 122 135 129 132 116 139 125 119 147 143 0
e 3 6 7 10 11 14 15 18 19 22 23 26 27 30 31 34 35 38 39 42 43 46 47 50 51 54 55 58 59 62 63 66 67 70 71 74 75 78 79 82 83 86 87 90 91 94 95 98 99 102 103 106 107 110 111 114 115 117 118 120 121 123 124 127 128 130 131 133 134 137 138 141 142 145 146 149 150 153 154 157 158 161 162 165 166 169 170 173 174 177 178 180 181 183 184 187 188 190 191 194 195 197 198 201 202 205 206 209 210 212 213 216 217 220 221 224 225 228 229 231 232 235 236 239 240 242 243 245 246 273 280 285 291 317 346 350 466 13 25 29 33 37 41 45 49 53 57 61 65 69 73 77 81 85 89 93 97 101 105 109 113 126 136 140 144 148 152 156 160 164 168 172 176 186 193 200 204 208 215 219 223 227 234 238 248 249 251 252 253 255 256 258 259 260 261 263 264 266 267 268 271 272 274 275 278 279 282 283 286 287 289 293 294 295 297 298 300 301 302 303 304 305 307 308 310 311 312 314 315 318 320 321 323 324 325 327 328 330 331 332 333 334 336 337 339 340 341 344 345 347 349 352 353 354 356 357 359 360 361 362 363 364 365 366 367 368 369 370 371 372 373 374 375 376 377 378 379 380 381 383 384 385 386 387 388 389 391 392 393 394 395 396 397 399 400 401 402 403 404 405 406 407 408 409 410 411 412 413 414 415 416 417 418 419 420 421 422 424 425 426 427 428 429 430 431 432 433 434 435 436 437 438 439 440 441 442 443 444 446 447 448 449 450 451 452 453 454 455 456 457 458 459 460 461 462 463 464 465 467 1413 1414 1415 1416 1417 1418 1419 1420 1421 1422 1423 1424 1425 1426 1427 1428 1429 1430 1431 1432 1433 1434 1435 1436 1437 1438 1439 1440 1441 1442 1443 1444 1445 1446 1447 1448 1449 1450 1451 1452 1453 1454 1455 1456 1457 1458 1459 1460 1461 1462 1463 1464 1465 1466 1467 1468 1469 1470 1471 1472 1473 1474 1475 1476 1477 1478 1479 1480 1481 1482 1483 1484 1485 1486 1487 1488 1489 1490 1491 1492 1493 1494 1495 1496 1497 1498 1499 1500 1501 1502 1503 1504 1505 1506 1507 1508 1509 1510 1511 1512 1513 1514 1515 1516 1517 1518 1519 1520 1521 1522 1523 1524 1525 1526 1527 1528 1529 1530 1531 1532 1533 1534 1535 1536 1537 1538 1539 1540 1541 1542 1543 1544 1545 1546 1547 1548 1549 1550 1551 1552 1553 1554 1555 1556 1557 1558 1559 1560 1561 1562 1563 1564 1565 1566 1567 1568 1569 1570 1571 1572 1573 1574 1575 1576 1577 1578 1579 1580 1581 1582 1583 1584 1585 1586 1587 1588 1589 1590 1591 1592 1593 1594 1595 1596 1597 1598 1599 1600 1601 1602 1603 1604 1605 1606 1607 1608 1609 1610 1611 1612 1613 1614 1615 1616 1617 1618 0
d 269 179 2 382 182 0
d 284 398 2 0
d 276 189 390 196 2 0
d 316 5 230 2 9 423 0
d 290 21 5 211 17 0
d 342 9 445 2 244 241 0
1414 -13 0
-1414 13 0
1415 -25 0
-1415 25 0
1416 -29 0
-1416 29 0
1417 -33 0
-1417 33 0
1418 -37 0
-1418 37 0
1419 -41 0
-1419 41 0
1420 -45 0
-1420 45 0
1421 -49 0
-1421 49 0
1422 -53 0
-1422 53 0
1423 -57 0
-1423 57 0
1424 -61 0
-1424 61 0
1425 -65 0
-1425 65 0
1426 -69 0
-1426 69 0
1427 -73 0
-1427 73 0
1428 -77 0
-1428 77 0
1429 -81 0
-1429 81 0
1430 -85 0
-1430 85 0
1431 -89 0
-1431 89 0
1432 -93 0
-1432 93 0
1433 -97 0
-1433 97 0
1434 -101 0
-1434 101 0
1435 -105 0
-1435 105 0
1436 -109 0
-1436 109 0
1437 -113 0
-1437 113 0
1438 -126 0
-1438 126 0
1439 -136 0
-1439 136 0
1440 -140 0
-1440 140 0
1441 -144 0
-1441 144 0
1442 -148 0
-1442 148 0
1443 -152 0
-1443 152 0
1444 -156 0
-1444 156 0
1421 -160 0
-1421 160 0
1445 -164 0
-1445 164 0
1446 -168 0
-1446 168 0
1447 -172 0
-1447 172 0
1448 -176 0
-1448 176 0
1449 -186 0
-1449 186 0
1450 -193 0
-1450 193 0
1451 -200 0
-1451 200 0
1452 -204 0
-1452 204 0
1453 -208 0
-1453 208 0
1433 -215 0
-1433 215 0
1454 -219 0
-1454 219 0
1455 -223 0
-1455 223 0
1456 -227 0
-1456 227 0
1457 -234 0
-1457 234 0
1458 -238 0
-1458 238 0
1459 -248 0
-1459 248 0
1460 -249 0
-1460 249 0
1461 -251 0
-1461 251 0
1462 -252 0
-1462 252 0
-1463 -253 0
1463 253 0
1464 -255 0
-1464 255 0
1465 -256 0
-1465 256 0
1466 -258 0
-1466 258 0
1467 -259 0
-1467 259 0
-1468 -260 0
1468 260 0
-1469 -261 0
1469 261 0
1470 -263 0
-1470 263 0
1471 -264 0
-1471 264 0
1472 -266 0
-1472 266 0
1473 -267 0
-1473 267 0
-1474 -268 0
1474 268 0
1475 -271 0
-1475 271 0
1476 -272 0
-1476 272 0
-1477 -274 0
1477 274 0
-1478 -275 0
1478 275 0
1479 -278 0
-1479 278 0
1480 -279 0
-1480 279 0
1481 -282 0
-1481 282 0
1482 -283 0
-1482 283 0
-1483 -286 0
1483 286 0
-1484 -287 0
1484 287 0
1485 -289 0
-1485 289 0
1486 -293 0
-1486 293 0
1487 -294 0
-1487 294 0
-1488 -295 0
1488 295 0
1489 -297 0
-1489 297 0
1490 -298 0
-1490 298 0
1491 -300 0
-1491 300 0
1492 -301 0
-1492 301 0
-1493 -302 0
1493 302 0
-1494 -303 0
1494 303 0
-1495 -304 0
1495 304 0
-1496 -305 0
1496 305 0
1497 -307 0
-1497 307 0
1498 -308 0
-1498 308 0
1499 -310 0
-1499 310 0
1500 -311 0
-1500 311 0
-1501 -312 0
1501 312 0
1502 -314 0
-1502 314 0
1503 -315 0
-1503 315 0
-1504 -318 0
1504 318 0
1505 -320 0
-1505 320 0
1506 -321 0
-1506 321 0
1507 -323 0
-1507 323 0
1508 -324 0
-1508 324 0
-1509 -325 0
1509 325 0
1510 -327 0
-1510 327 0
1511 -328 0
-1511 328 0
1512 -330 0
-1512 330 0
1513 -331 0
-1513 331 0
-1514 -332 0
1514 332 0
-1515 -333 0
1515 333 0
-1516 -334 0
1516 334 0
1517 -336 0
-1517 336 0
1518 -337 0
-1518 337 0
1519 -339 0
-1519 339 0
1520 -340 0
-1520 340 0
-1521 -341 0
1521 341 0
1522 -344 0
-1522 344 0
1523 -345 0
-1523 345 0
-1524 -347 0
1524 347 0
1525 -349 0
-1525 349 0
1526 -352 0
-1526 352 0
1527 -353 0
-1527 353 0
-1528 -354 0
1528 354 0
1529 -356 0
-1529 356 0
1530 -357 0
-1530 357 0
1531 -359 0
-1531 359 0
1532 -360 0
-1532 360 0
-1533 -361 0
1533 361 0
-1534 -362 0
1534 362 0
-1535 -363 0
1535 363 0
-1536 -364 0
1536 364 0
-1537 -365 0
1537 365 0
1538 -366 0
-1538 366 0
1539 -367 0
-1539 367 0
1540 -368 0
-1540 368 0
1541 -369 0
-1541 369 0
-1542 -370 0
1542 370 0
1543 -371 0
-1543 371 0
1544 -372 0
-1544 372 0
1545 -373 0
-1545 373 0
1546 -374 0
-1546 374 0
-1547 -375 0
1547 375 0
-1548 -376 0
1548 376 0
1549 -377 0
-1549 377 0
1550 -378 0
-1550 378 0
1551 -379 0
-1551 379 0
1552 -380 0
-1552 380 0
-1553 -381 0
1553 381 0
1554 -383 0
-1554 383 0
1555 -384 0
-1555 384 0
1556 -385 0
-1556 385 0
1557 -386 0
-1557 386 0
-1558 -387 0
1558 387 0
-1559 -388 0
1559 388 0
-1560 -389 0
1560 389 0
1561 -391 0
-1561 391 0
1562 -392 0
-1562 392 0
1563 -393 0
-1563 393 0
1564 -394 0
-1564 394 0
-1565 -395 0
1565 395 0
1566 -396 0
-1566 396 0
1567 -397 0
-1567 397 0
1568 -399 0
-1568 399 0
1569 -400 0
-1569 400 0
-1570 -401 0
1570 401 0
-1571 -402 0
1571 402 0
1572 -403 0
-1572 403 0
1573 -404 0
-1573 404 0
1574 -405 0
-1574 405 0
1575 -406 0
-1575 406 0
-1576 -407 0
1576 407 0
1577 -408 0
-1577 408 0
1578 -409 0
-1578 409 0
1579 -410 0
-1579 410 0
1580 -411 0
-1580 411 0
-1581 -412 0
1581 412 0
-1582 -413 0
1582 413 0
-1583 -414 0
1583 414 0
-1584 -415 0
1584 415 0
1497 -416 0
-1497 416 0
1585 -417 0
-1585 417 0
1499 -418 0
-1499 418 0
1586 -419 0
-1586 419 0
-1587 -420 0
1587 420 0
1502 -421 0
-1502 421 0
1588 -422 0
-1588 422 0
1589 -424 0
-1589 424 0
1590 -425 0
-1590 425 0
-1591 -426 0
1591 426 0
-1592 -427 0
1592 427 0
1505 -428 0
-1505 428 0
1593 -429 0
-1593 429 0
1507 -430 0
-1507 430 0
1594 -431 0
-1594 431 0
-1595 -432 0
1595 432 0
1510 -433 0
-1510 433 0
1596 -434 0
-1596 434 0
1512 -435 0
-1512 435 0
1597 -436 0
-1597 436 0
-1598 -437 0
1598 437 0
-1599 -438 0
1599 438 0
-1600 -439 0
1600 439 0
1517 -440 0
-1517 440 0
1601 -441 0
-1601 441 0
1519 -442 0
-1519 442 0
1602 -443 0
-1602 443 0
-1603 -444 0
1603 444 0
1604 -446 0
-1604 446 0
1605 -447 0
-1605 447 0
1522 -448 0
-1522 448 0
1606 -449 0
-1606 449 0
-1607 -450 0
1607 450 0
-1608 -451 0
1608 451 0
1525 -452 0
-1525 452 0
1609 -453 0
-1609 453 0
1526 -454 0
-1526 454 0
1610 -455 0
-1610 455 0
-1611 -456 0
1611 456 0
1529 -457 0
-1529 457 0
1612 -458 0
-1612 458 0
1531 -459 0
-1531 459 0
1613 -460 0
-1613 460 0
-1614 -461 0
1614 461 0
-1615 -462 0
1615 462 0
-1616 -463 0
1616 463 0
-1617 -464 0
1617 464 0
-1618 -465 0
1618 465 0
1413 -467 0
-1413 467 0
467 0
-467 246 466 0
-246 243 -245 0
-243 240 -242 0
-240 236 -239 0
-236 232 -235 0
-232 229 -231 0
-229 225 -228 0
-225 221 -224 0
-221 217 -220 0
-217 213 -216 0
-213 210 -212 0
-210 206 -209 0
-206 202 -205 0
-202 198 -201 0
-198 195 -197 0
-195 191 -194 0
-191 188 -190 0
-188 184 -187 0
-184 181 -183 0
-181 178 -180 0
-178 174 -177 0
-174 170 -173 0
-170 166 -169 0
-166 162 -165 0
-162 158 -161 0
-158 154 -157 0
-154 150 -153 0
-150 146 -149 0
-146 142 -145 0
-142 138 -141 0
-138 134 -137 0
-134 131 -133 0
-131 128 -130 0
-128 124 -127 0
-124 121 -123 0
-121 118 -120 0
-118 115 -117 0
-115 111 -114 0
-111 107 -110 0
-107 103 -106 0
-103 99 -102 0
-99 95 -98 0
-95 91 -94 0
-91 87 -90 0
-87 83 -86 0
-83 79 -82 0
-79 75 -78 0
-75 71 -74 0
-71 67 -70 0
-67 63 -66 0
-63 59 -62 0
-59 55 -58 0
-55 51 -54 0
-51 47 -50 0
-47 43 -46 0
-43 39 -42 0
-39 35 -38 0
-35 31 -34 0
-31 27 -30 0
-27 23 -26 0
-23 19 -22 0
-19 15 -18 0
-15 11 -14 0
-11 7 -10 0
-7 -3 -6 0
1 -2 3 0
-1 2 3 0
4 -5 6 0
-4 5 6 0
8 -9 10 0
-8 9 10 0
12 13 14 0
-12 -13 14 0
-4 -8 13 0
-13 4 0
-13 8 0
16 -17 18 0
-16 17 18 0
20 -21 22 0
-20 21 22 0
24 25 26 0
-24 -25 26 0
-16 -20 25 0
-25 16 0
-25 20 0
28 29 30 0
-28 -29 30 0
-12 -24 29 0
-29 12 0
-29 24 0
32 33 34 0
-32 -33 34 0
-5 -8 33 0
-33 5 0
-33 8 0
36 37 38 0
-36 -37 38 0
-32 -24 37 0
-37 32 0
-37 24 0
40 41 42 0
-40 -41 42 0
-4 -9 41 0
-41 4 0
-41 9 0
44 45 46 0
-44 -45 46 0
-40 -24 45 0
-45 40 0
-45 24 0
48 49 50 0
-48 -49 50 0
-5 -9 49 0
-49 5 0
-49 9 0
52 53 54 0
-52 -53 54 0
-48 -24 53 0
-53 48 0
-53 24 0
56 57 58 0
-56 -57 58 0
-17 -20 57 0
-57 17 0
-57 20 0
60 61 62 0
-60 -61 62 0
-12 -56 61 0
-61 12 0
-61 56 0
64 65 66 0
-64 -65 66 0
-32 -56 65 0
-65 32 0
-65 56 0
68 69 70 0
-68 -69 70 0
-40 -56 69 0
-69 40 0
-69 56 0
72 73 74 0
-72 -73 74 0
-48 -56 73 0
-73 48 0
-73 56 0
76 77 78 0
-76 -77 78 0
-16 -21 77 0
-77 16 0
-77 21 0
80 81 82 0
-80 -81 82 0
-12 -76 81 0
-81 12 0
-81 76 0
84 85 86 0
-84 -85 86 0
-32 -76 85 0
-85 32 0
-85 76 0
88 89 90 0
-88 -89 90 0
-40 -76 89 0
-89 40 0
-89 76 0
92 93 94 0
-92 -93 94 0
-48 -76 93 0
-93 48 0
-93 76 0
96 97 98 0
-96 -97 98 0
-17 -21 97 0
-97 17 0
-97 21 0
100 101 102 0
-100 -101 102 0
-12 -96 101 0
-101 12 0
-101 96 0
104 105 106 0
-104 -105 106 0
-32 -96 105 0
-105 32 0
-105 96 0
108 109 110 0
-108 -109 110 0
-40 -96 109 0
-109 40 0
-109 96 0
112 113 114 0
-112 -113 114 0
-48 -96 113 0
-113 48 0
-113 96 0
116 -2 117 0
-116 2 117 0
119 -5 120 0
-119 5 120 0
122 -9 123 0
-122 9 123 0
125 126 127 0
-125 -126 127 0
-119 -122 126 0
-126 119 0
-126 122 0
129 -17 130 0
-129 17 130 0
132 -21 133 0
-132 21 133 0
135 136 137 0
-135 -136 137 0
-129 -132 136 0
-136 129 0
-136 132 0
139 140 141 0
-139 -140 141 0
-125 -135 140 0
-140 125 0
-140 135 0
143 144 145 0
-143 -144 145 0
-5 -122 144 0
-144 5 0
-144 122 0
147 148 149 0
-147 -148 149 0
-143 -135 148 0
-148 143 0
-148 135 0
151 152 153 0
-151 -152 153 0
-119 -9 152 0
-152 119 0
-152 9 0
155 156 157 0
-155 -156 157 0
-151 -135 156 0
-156 151 0
-156 135 0
159 160 161 0
-159 -160 161 0
-5 -9 160 0
-160 5 0
-160 9 0
163 164 165 0
-163 -164 165 0
-159 -135 164 0
-164 159 0
-164 135 0
167 168 169 0
-167 -168 169 0
-17 -132 168 0
-168 17 0
-168 132 0
171 172 173 0
-171 -172 173 0
-125 -167 172 0
-172 125 0
-172 167 0
175 176 177 0
-175 -176 177 0
-143 -167 176 0
-176 143 0
-176 167 0
179 151 180 0
-179 -151 180 0
182 167 183 0
-182 -167 183 0
185 186 187 0
-185 -186 187 0
-159 -167 186 0
-186 159 0
-186 167 0
189 125 190 0
-189 -125 190 0
192 193 194 0
-192 -193 194 0
-129 -21 193 0
-193 129 0
-193 21 0
196 192 197 0
-196 -192 197 0
199 200 201 0
-199 -200 201 0
-143 -192 200 0
-200 143 0
-200 192 0
203 204 205 0
-203 -204 205 0
-151 -192 204 0
-204 151 0
-204 192 0
207 208 209 0
-207 -208 209 0
-159 -192 208 0
-208 159 0
-208 192 0
211 122 212 0
-211 -122 212 0
214 215 216 0
-214 -215 216 0
-17 -21 215 0
-215 17 0
-215 21 0
218 219 220 0
-218 -219 220 0
-143 -214 219 0
-219 143 0
-219 214 0
222 223 224 0
-222 -223 224 0
-151 -214 223 0
-223 151 0
-223 214 0
226 227 228 0
-226 -227 228 0
-159 -214 227 0
-227 159 0
-227 214 0
230 135 231 0
-230 -135 231 0
233 234 235 0
-233 -234 235 0
-151 -167 234 0
-234 151 0
-234 167 0
237 238 239 0
-237 -238 239 0
-125 -192 238 0
-238 125 0
-238 192 0
241 192 242 0
-241 -192 242 0
244 119 245 0
-244 -119 245 0
-466 -365 465 0
-466 365 -465 0
-365 305 364 0
-305 275 304 0
-275 261 274 0
-261 253 260 0
-253 249 252 0
-249 248 0
-249 139 0
-248 116 0
-248 247 0
-252 251 0
-252 147 0
-251 116 0
-251 250 0
-260 256 259 0
-256 255 0
-256 155 0
-255 116 0
-255 254 0
-259 258 0
-259 163 0
-258 116 0
-258 257 0
-274 268 273 0
-268 264 267 0
-264 263 0
-264 171 0
-263 116 0
-263 262 0
-267 266 0
-267 175 0
-266 116 0
-266 265 0
-273 269 272 0
-272 271 0
-272 185 0
-271 116 0
-271 270 0
-304 287 303 0
-287 280 286 0
-280 276 279 0
-279 278 0
-279 199 0
-278 116 0
-278 277 0
-286 283 285 0
-283 282 0
-283 203 0
-282 116 0
-282 281 0
-285 284 0
-285 207 0
-303 295 302 0
-295 291 294 0
-291 289 0
-291 290 0
-289 116 0
-289 288 0
-294 293 0
-294 218 0
-293 116 0
-293 292 0
-302 298 301 0
-298 297 0
-298 222 0
-297 116 0
-297 296 0
-301 300 0
-301 226 0
-300 116 0
-300 299 0
-364 334 363 0
-334 318 333 0
-318 -312 317 0
-308 311 312 0
308 -311 312 0
-308 -311 312 0
-307 -139 308 0
-2 -306 307 0
-310 -147 311 0
-2 -309 310 0
-317 315 316 0
-315 314 0
-315 155 0
-314 2 0
-314 313 0
-333 325 332 0
-325 321 324 0
-321 320 0
-321 171 0
-320 2 0
-320 319 0
-324 323 0
-324 175 0
-323 2 0
-323 322 0
-332 328 331 0
-328 327 0
-328 233 0
-327 2 0
-327 326 0
-331 330 0
-331 185 0
-330 2 0
-330 329 0
-363 347 362 0
-347 341 346 0
-341 337 340 0
-337 336 0
-337 237 0
-336 2 0
-336 335 0
-340 339 0
-340 199 0
-339 2 0
-339 338 0
-346 342 345 0
-345 344 0
-345 207 0
-344 2 0
-344 343 0
-362 354 361 0
-354 350 353 0
-350 349 0
-350 290 0
-349 2 0
-349 348 0
-353 352 0
-353 218 0
-352 2 0
-352 351 0
-361 357 360 0
-357 356 0
-357 222 0
-356 2 0
-356 355 0
-360 359 0
-360 226 0
-359 2 0
-359 358 0
-465 415 464 0
-415 389 414 0
-389 376 388 0
-376 370 375 0
-370 367 369 0
-367 366 0
-367 28 0
-366 1 0
-366 247 0
-369 368 0
-369 36 0
-368 1 0
-368 250 0
-375 372 374 0
-372 371 0
-372 44 0
-371 1 0
-371 254 0
-374 373 0
-374 52 0
-373 1 0
-373 257 0
-388 381 387 0
-381 378 380 0
-378 377 0
-378 60 0
-377 1 0
-377 262 0
-380 379 0
-380 64 0
-379 1 0
-379 265 0
-387 384 386 0
-384 383 0
-384 68 0
-383 1 0
-383 382 0
-386 385 0
-386 72 0
-385 1 0
-385 270 0
-414 402 413 0
-402 395 401 0
-395 392 394 0
-392 391 0
-392 80 0
-391 1 0
-391 390 0
-394 393 0
-394 84 0
-393 1 0
-393 277 0
-401 397 400 0
-397 396 0
-397 88 0
-396 1 0
-396 281 0
-400 399 0
-400 92 0
-399 1 0
-399 398 0
-413 407 412 0
-407 404 406 0
-404 403 0
-404 100 0
-403 1 0
-403 288 0
-406 405 0
-406 104 0
-405 1 0
-405 292 0
-412 409 411 0
-409 408 0
-409 108 0
-408 1 0
-408 296 0
-411 410 0
-411 112 0
-410 1 0
-410 299 0
-464 439 463 0
-439 427 438 0
-427 420 426 0
-420 417 419 0
-417 416 0
-417 28 0
-416 2 0
-416 306 0
-419 418 0
-419 36 0
-418 2 0
-418 309 0
-426 422 425 0
-422 421 0
-422 44 0
-421 2 0
-421 313 0
-425 424 0
-425 52 0
-424 2 0
-424 423 0
-438 432 437 0
-432 429 431 0
-429 428 0
-429 60 0
-428 2 0
-428 319 0
-431 430 0
-431 64 0
-430 2 0
-430 322 0
-437 434 436 0
-434 433 0
-434 68 0
-433 2 0
-433 326 0
-436 435 0
-436 72 0
-435 2 0
-435 329 0
-463 451 462 0
-451 444 450 0
-444 441 443 0
-441 440 0
-441 80 0
-440 2 0
-440 335 0
-443 442 0
-443 84 0
-442 2 0
-442 338 0
-450 447 449 0
-447 446 0
-447 88 0
-446 2 0
-446 445 0
-449 448 0
-449 92 0
-448 2 0
-448 343 0
-462 456 461 0
-456 453 455 0
-453 452 0
-453 100 0
-452 2 0
-452 348 0
-455 454 0
-455 104 0
-454 2 0
-454 351 0
-461 458 460 0
-458 457 0
-458 108 0
-457 2 0
-457 355 0
-460 459 0
-460 112 0
-459 2 0
-459 358 0
-305 364 365 0
305 -364 365 0
-305 -364 365 0
-275 304 305 0
275 -304 305 0
-275 -304 305 0
-261 274 275 0
261 -274 275 0
-261 -274 275 0
-253 260 261 0
253 -260 261 0
-253 -260 261 0
-249 252 253 0
249 -252 253 0
-249 -252 253 0
-248 -139 249 0
-116 -247 248 0
-251 -147 252 0
-116 -250 251 0
-256 259 260 0
256 -259 260 0
-256 -259 260 0
-255 -155 256 0
-116 -254 255 0
-258 -163 259 0
-116 -257 258 0
-268 273 274 0
268 -273 274 0
-268 -273 274 0
-264 267 268 0
264 -267 268 0
-264 -267 268 0
-263 -171 264 0
-116 -262 263 0
-266 -175 267 0
-116 -265 266 0
-269 272 273 0
269 -272 273 0
-269 -272 273 0
-271 -185 272 0
-116 -270 271 0
-287 303 304 0
287 -303 304 0
-287 -303 304 0
-280 286 287 0
280 -286 287 0
-280 -286 287 0
-276 279 280 0
276 -279 280 0
-276 -279 280 0
-278 -199 279 0
-116 -277 278 0
-283 285 286 0
283 -285 286 0
-283 -285 286 0
-282 -203 283 0
-116 -281 282 0
-284 -207 285 0
-295 302 303 0
295 -302 303 0
-295 -302 303 0
-291 294 295 0
291 -294 295 0
-291 -294 295 0
-289 -290 291 0
-116 -288 289 0
-293 -218 294 0
-116 -292 293 0
-298 301 302 0
298 -301 302 0
-298 -301 302 0
-297 -222 298 0
-116 -296 297 0
-300 -226 301 0
-116 -299 300 0
-334 363 364 0
334 -363 364 0
-334 -363 364 0
-318 333 334 0
318 -333 334 0
-318 -333 334 0
312 317 318 0
-312 -317 318 0
312 -317 318 0
-312 308 311 0
-308 307 0
-308 139 0
-307 2 0
-307 306 0
-311 310 0
-311 147 0
-310 2 0
-310 309 0
-315 316 317 0
315 -316 317 0
-315 -316 317 0
-314 -155 315 0
-2 -313 314 0
-325 332 333 0
325 -332 333 0
-325 -332 333 0
-321 324 325 0
321 -324 325 0
-321 -324 325 0
-320 -171 321 0
-2 -319 320 0
-323 -175 324 0
-2 -322 323 0
-328 331 332 0
328 -331 332 0
-328 -331 332 0
-327 -233 328 0
-2 -326 327 0
-330 -185 331 0
-2 -329 330 0
-347 362 363 0
347 -362 363 0
-347 -362 363 0
-341 346 347 0
341 -346 347 0
-341 -346 347 0
-337 340 341 0
337 -340 341 0
-337 -340 341 0
-336 -237 337 0
-2 -335 336 0
-339 -199 340 0
-2 -338 339 0
-342 345 346 0
342 -345 346 0
-342 -345 346 0
-344 -207 345 0
-2 -343 344 0
-354 361 362 0
354 -361 362 0
-354 -361 362 0
-350 353 354 0
350 -353 354 0
-350 -353 354 0
-349 -290 350 0
-2 -348 349 0
-352 -218 353 0
-2 -351 352 0
-357 360 361 0
357 -360 361 0
-357 -360 361 0
-356 -222 357 0
-2 -355 356 0
-359 -226 360 0
-2 -358 359 0
-415 464 465 0
415 -464 465 0
-415 -464 465 0
-389 414 415 0
389 -414 415 0
-389 -414 415 0
-376 388 389 0
376 -388 389 0
-376 -388 389 0
-370 375 376 0
370 -375 376 0
-370 -375 376 0
-367 369 370 0
367 -369 370 0
-367 -369 370 0
-366 -28 367 0
-1 -247 366 0
-368 -36 369 0
-1 -250 368 0
-372 374 375 0
372 -374 375 0
-372 -374 375 0
-371 -44 372 0
-1 -254 371 0
-373 -52 374 0
-1 -257 373 0
-381 387 388 0
381 -387 388 0
-381 -387 388 0
-378 380 381 0
378 -380 381 0
-378 -380 381 0
-377 -60 378 0
-1 -262 377 0
-379 -64 380 0
-1 -265 379 0
-384 386 387 0
384 -386 387 0
-384 -386 387 0
-383 -68 384 0
-1 -382 383 0
-385 -72 386 0
-1 -270 385 0
-402 413 414 0
402 -413 414 0
-402 -413 414 0
-395 401 402 0
395 -401 402 0
-395 -401 402 0
-392 394 395 0
392 -394 395 0
-392 -394 395 0
-391 -80 392 0
-1 -390 391 0
-393 -84 394 0
-1 -277 393 0
-397 400 401 0
397 -400 401 0
-397 -400 401 0
-396 -88 397 0
-1 -281 396 0
-399 -92 400 0
-1 -398 399 0
-407 412 413 0
407 -412 413 0
-407 -412 413 0
-404 406 407 0
404 -406 407 0
-404 -406 407 0
-403 -100 404 0
-1 -288 403 0
-405 -104 406 0
-1 -292 405 0
-409 411 412 0
409 -411 412 0
-409 -411 412 0
-408 -108 409 0
-1 -296 408 0
-410 -112 411 0
-1 -299 410 0
-439 463 464 0
439 -463 464 0
-439 -463 464 0
-427 438 439 0
427 -438 439 0
-427 -438 439 0
-420 426 427 0
420 -426 427 0
-420 -426 427 0
-417 419 420 0
417 -419 420 0
-417 -419 420 0
-416 -28 417 0
-2 -306 416 0
-418 -36 419 0
-2 -309 418 0
-422 425 426 0
422 -425 426 0
-422 -425 426 0
-421 -44 422 0
-2 -313 421 0
-424 -52 425 0
-2 -423 424 0
-432 437 438 0
432 -437 438 0
-432 -437 438 0
-429 431 432 0
429 -431 432 0
-429 -431 432 0
-428 -60 429 0
-2 -319 428 0
-430 -64 431 0
-2 -322 430 0
-434 436 437 0
434 -436 437 0
-434 -436 437 0
-433 -68 434 0
-2 -326 433 0
-435 -72 436 0
-2 -329 435 0
-451 462 463 0
451 -462 463 0
-451 -462 463 0
-444 450 451 0
444 -450 451 0
-444 -450 451 0
-441 443 444 0
441 -443 444 0
-441 -443 444 0
-440 -80 441 0
-2 -335 440 0
-442 -84 443 0
-2 -338 442 0
-447 449 450 0
447 -449 450 0
-447 -449 450 0
-446 -88 447 0
-2 -445 446 0
-448 -92 449 0
-2 -343 448 0
-456 461 462 0
456 -461 462 0
-456 -461 462 0
-453 455 456 0
453 -455 456 0
-453 -455 456 0
-452 -100 453 0
-2 -348 452 0
-454 -104 455 0
-2 -351 454 0
-458 460 461 0
458 -460 461 0
-458 -460 461 0
-457 -108 458 0
-2 -355 457 0
-459 -112 460 0
-2 -358 459 0
1413 0
4 -1414 0
8 -1414 0
-4 -8 1414 0
20 -1415 0
16 -1415 0
-20 -16 1415 0
24 -1416 0
12 -1416 0
-24 -12 1416 0
8 -1417 0
5 -1417 0
-8 -5 1417 0
32 -1418 0
24 -1418 0
-32 -24 1418 0
4 -1419 0
9 -1419 0
-4 -9 1419 0
40 -1420 0
24 -1420 0
-40 -24 1420 0
5 -1421 0
9 -1421 0
-5 -9 1421 0
48 -1422 0
24 -1422 0
-48 -24 1422 0
20 -1423 0
17 -1423 0
-20 -17 1423 0
56 -1424 0
12 -1424 0
-56 -12 1424 0
56 -1425 0
32 -1425 0
-56 -32 1425 0
56 -1426 0
40 -1426 0
-56 -40 1426 0
56 -1427 0
48 -1427 0
-56 -48 1427 0
16 -1428 0
21 -1428 0
-16 -21 1428 0
12 -1429 0
76 -1429 0
-12 -76 1429 0
32 -1430 0
76 -1430 0
-32 -76 1430 0
40 -1431 0
76 -1431 0
-40 -76 1431 0
48 -1432 0
76 -1432 0
-48 -76 1432 0
21 -1433 0
17 -1433 0
-21 -17 1433 0
12 -1434 0
96 -1434 0
-12 -96 1434 0
32 -1435 0
96 -1435 0
-32 -96 1435 0
40 -1436 0
96 -1436 0
-40 -96 1436 0
48 -1437 0
96 -1437 0
-48 -96 1437 0
122 -1438 0
119 -1438 0
-122 -119 1438 0
129 -1439 0
132 -1439 0
-129 -132 1439 0
135 -1440 0
125 -1440 0
-135 -125 1440 0
5 -1441 0
122 -1441 0
-5 -122 1441 0
135 -1442 0
143 -1442 0
-135 -143 1442 0
9 -1443 0
119 -1443 0
-9 -119 1443 0
151 -1444 0
135 -1444 0
-151 -135 1444 0
159 -1445 0
135 -1445 0
-159 -135 1445 0
17 -1446 0
132 -1446 0
-17 -132 1446 0
167 -1447 0
125 -1447 0
-167 -125 1447 0
167 -1448 0
143 -1448 0
-167 -143 1448 0
167 -1449 0
159 -1449 0
-167 -159 1449 0
21 -1450 0
129 -1450 0
-21 -129 1450 0
192 -1451 0
143 -1451 0
-192 -143 1451 0
151 -1452 0
192 -1452 0
-151 -192 1452 0
159 -1453 0
192 -1453 0
-159 -192 1453 0
214 -1454 0
143 -1454 0
-214 -143 1454 0
151 -1455 0
214 -1455 0
-151 -214 1455 0
159 -1456 0
214 -1456 0
-159 -214 1456 0
167 -1457 0
151 -1457 0
-167 -151 1457 0
192 -1458 0
125 -1458 0
-192 -125 1458 0
247 -1459 0
116 -1459 0
-247 -116 1459 0
139 -1460 0
248 -1460 0
-139 -248 1460 0
250 -1461 0
116 -1461 0
-250 -116 1461 0
147 -1462 0
251 -1462 0
-147 -251 1462 0
-249 -1463 0
-252 -1463 0
249 252 1463 0
254 -1464 0
116 -1464 0
-254 -116 1464 0
155 -1465 0
255 -1465 0
-155 -255 1465 0
257 -1466 0
116 -1466 0
-257 -116 1466 0
163 -1467 0
258 -1467 0
-163 -258 1467 0
-256 -1468 0
-259 -1468 0
256 259 1468 0
-253 -1469 0
1468 -1469 0
253 -1468 1469 0
262 -1470 0
116 -1470 0
-262 -116 1470 0
171 -1471 0
263 -1471 0
-171 -263 1471 0
265 -1472 0
116 -1472 0
-265 -116 1472 0
175 -1473 0
266 -1473 0
-175 -266 1473 0
-264 -1474 0
-267 -1474 0
264 267 1474 0
270 -1475 0
116 -1475 0
-270 -116 1475 0
185 -1476 0
271 -1476 0
-185 -271 1476 0
-268 -1477 0
-273 -1477 0
268 273 1477 0
-261 -1478 0
1477 -1478 0
261 -1477 1478 0
277 -1479 0
116 -1479 0
-277 -116 1479 0
199 -1480 0
278 -1480 0
-199 -278 1480 0
281 -1481 0
116 -1481 0
-281 -116 1481 0
203 -1482 0
282 -1482 0
-203 -282 1482 0
-283 -1483 0
-285 -1483 0
283 285 1483 0
-280 -1484 0
-286 -1484 0
280 286 1484 0
288 -1485 0
116 -1485 0
-288 -116 1485 0
292 -1486 0
116 -1486 0
-292 -116 1486 0
218 -1487 0
293 -1487 0
-218 -293 1487 0
-291 -1488 0
-294 -1488 0
291 294 1488 0
296 -1489 0
116 -1489 0
-296 -116 1489 0
222 -1490 0
297 -1490 0
-222 -297 1490 0
299 -1491 0
116 -1491 0
-299 -116 1491 0
226 -1492 0
300 -1492 0
-226 -300 1492 0
-298 -1493 0
-301 -1493 0
298 301 1493 0
-295 -1494 0
-302 -1494 0
295 302 1494 0
-287 -1495 0
-303 -1495 0
287 303 1495 0
-275 -1496 0
-304 -1496 0
275 304 1496 0
306 -1497 0
2 -1497 0
-306 -2 1497 0
139 -1498 0
307 -1498 0
-139 -307 1498 0
309 -1499 0
2 -1499 0
-309 -2 1499 0
147 -1500 0
310 -1500 0
-147 -310 1500 0
-308 -1501 0
-311 -1501 0
308 311 1501 0
313 -1502 0
2 -1502 0
-313 -2 1502 0
155 -1503 0
314 -1503 0
-155 -314 1503 0
312 -1504 0
-317 -1504 0
-312 317 1504 0
319 -1505 0
2 -1505 0
-319 -2 1505 0
171 -1506 0
320 -1506 0
-171 -320 1506 0
322 -1507 0
2 -1507 0
-322 -2 1507 0
175 -1508 0
323 -1508 0
-175 -323 1508 0
-321 -1509 0
-324 -1509 0
321 324 1509 0
326 -1510 0
2 -1510 0
-326 -2 1510 0
233 -1511 0
327 -1511 0
-233 -327 1511 0
329 -1512 0
2 -1512 0
-329 -2 1512 0
185 -1513 0
330 -1513 0
-185 -330 1513 0
-328 -1514 0
-331 -1514 0
328 331 1514 0
-325 -1515 0
-332 -1515 0
325 332 1515 0
-318 -1516 0
1515 -1516 0
318 -1515 1516 0
335 -1517 0
2 -1517 0
-335 -2 1517 0
237 -1518 0
336 -1518 0
-237 -336 1518 0
338 -1519 0
2 -1519 0
-338 -2 1519 0
199 -1520 0
339 -1520 0
-199 -339 1520 0
-337 -1521 0
-340 -1521 0
337 340 1521 0
343 -1522 0
2 -1522 0
-343 -2 1522 0
207 -1523 0
344 -1523 0
-207 -344 1523 0
-341 -1524 0
-346 -1524 0
341 346 1524 0
348 -1525 0
2 -1525 0
-348 -2 1525 0
351 -1526 0
2 -1526 0
-351 -2 1526 0
218 -1527 0
352 -1527 0
-218 -352 1527 0
-350 -1528 0
-353 -1528 0
350 353 1528 0
355 -1529 0
2 -1529 0
-355 -2 1529 0
222 -1530 0
356 -1530 0
-222 -356 1530 0
358 -1531 0
2 -1531 0
-358 -2 1531 0
226 -1532 0
359 -1532 0
-226 -359 1532 0
-357 -1533 0
-360 -1533 0
357 360 1533 0
-354 -1534 0
-361 -1534 0
354 361 1534 0
-347 -1535 0
1534 -1535 0
347 -1534 1535 0
-334 -1536 0
-363 -1536 0
334 363 1536 0
-305 -1537 0
1536 -1537 0
305 -1536 1537 0
1 -1538 0
247 -1538 0
-1 -247 1538 0
28 -1539 0
366 -1539 0
-28 -366 1539 0
1 -1540 0
250 -1540 0
-1 -250 1540 0
36 -1541 0
368 -1541 0
-36 -368 1541 0
-367 -1542 0
-369 -1542 0
367 369 1542 0
1 -1543 0
254 -1543 0
-1 -254 1543 0
44 -1544 0
371 -1544 0
-44 -371 1544 0
1 -1545 0
257 -1545 0
-1 -257 1545 0
52 -1546 0
373 -1546 0
-52 -373 1546 0
-372 -1547 0
-374 -1547 0
372 374 1547 0
-370 -1548 0
-375 -1548 0
370 375 1548 0
1 -1549 0
262 -1549 0
-1 -262 1549 0
60 -1550 0
377 -1550 0
-60 -377 1550 0
1 -1551 0
265 -1551 0
-1 -265 1551 0
64 -1552 0
379 -1552 0
-64 -379 1552 0
-378 -1553 0
-380 -1553 0
378 380 1553 0
1 -1554 0
382 -1554 0
-1 -382 1554 0
68 -1555 0
383 -1555 0
-68 -383 1555 0
1 -1556 0
270 -1556 0
-1 -270 1556 0
72 -1557 0
385 -1557 0
-72 -385 1557 0
-384 -1558 0
-386 -1558 0
384 386 1558 0
-381 -1559 0
-387 -1559 0
381 387 1559 0
-376 -1560 0
1559 -1560 0
376 -1559 1560 0
1 -1561 0
390 -1561 0
-1 -390 1561 0
80 -1562 0
391 -1562 0
-80 -391 1562 0
277 -1563 0
1 -1563 0
-277 -1 1563 0
84 -1564 0
393 -1564 0
-84 -393 1564 0
-392 -1565 0
-394 -1565 0
392 394 1565 0
281 -1566 0
1 -1566 0
-281 -1 1566 0
88 -1567 0
396 -1567 0
-88 -396 1567 0
398 -1568 0
1 -1568 0
-398 -1 1568 0
92 -1569 0
399 -1569 0
-92 -399 1569 0
-397 -1570 0
-400 -1570 0
397 400 1570 0
-395 -1571 0
-401 -1571 0
395 401 1571 0
288 -1572 0
1 -1572 0
-288 -1 1572 0
100 -1573 0
403 -1573 0
-100 -403 1573 0
292 -1574 0
1 -1574 0
-292 -1 1574 0
104 -1575 0
405 -1575 0
-104 -405 1575 0
-404 -1576 0
-406 -1576 0
404 406 1576 0
296 -1577 0
1 -1577 0
-296 -1 1577 0
108 -1578 0
408 -1578 0
-108 -408 1578 0
299 -1579 0
1 -1579 0
-299 -1 1579 0
112 -1580 0
410 -1580 0
-112 -410 1580 0
-409 -1581 0
-411 -1581 0
409 411 1581 0
-407 -1582 0
-412 -1582 0
407 412 1582 0
-402 -1583 0
1582 -1583 0
402 -1582 1583 0
-389 -1584 0
-414 -1584 0
389 414 1584 0
28 -1585 0
416 -1585 0
-28 -416 1585 0
36 -1586 0
418 -1586 0
-36 -418 1586 0
-417 -1587 0
-419 -1587 0
417 419 1587 0
44 -1588 0
421 -1588 0
-44 -421 1588 0
423 -1589 0
2 -1589 0
-423 -2 1589 0
52 -1590 0
424 -1590 0
-52 -424 1590 0
-422 -1591 0
-425 -1591 0
422 425 1591 0
-420 -1592 0
-426 -1592 0
420 426 1592 0
60 -1593 0
428 -1593 0
-60 -428 1593 0
64 -1594 0
430 -1594 0
-64 -430 1594 0
-429 -1595 0
-431 -1595 0
429 431 1595 0
68 -1596 0
433 -1596 0
-68 -433 1596 0
72 -1597 0
435 -1597 0
-72 -435 1597 0
-434 -1598 0
-436 -1598 0
434 436 1598 0
-432 -1599 0
-437 -1599 0
432 437 1599 0
-427 -1600 0
1599 -1600 0
427 -1599 1600 0
80 -1601 0
440 -1601 0
-80 -440 1601 0
84 -1602 0
442 -1602 0
-84 -442 1602 0
-441 -1603 0
-443 -1603 0
441 443 1603 0
445 -1604 0
2 -1604 0
-445 -2 1604 0
88 -1605 0
446 -1605 0
-88 -446 1605 0
92 -1606 0
448 -1606 0
-92 -448 1606 0
-447 -1607 0
-449 -1607 0
447 449 1607 0
-444 -1608 0
-450 -1608 0
444 450 1608 0
100 -1609 0
452 -1609 0
-100 -452 1609 0
104 -1610 0
454 -1610 0
-104 -454 1610 0
-453 -1611 0
-455 -1611 0
453 455 1611 0
108 -1612 0
457 -1612 0
-108 -457 1612 0
112 -1613 0
459 -1613 0
-112 -459 1613 0
-458 -1614 0
-460 -1614 0
458 460 1614 0
-456 -1615 0
-461 -1615 0
456 461 1615 0
-451 -1616 0
-462 -1616 0
451 462 1616 0
-439 -1617 0
-463 -1617 0
439 463 1617 0
-415 -1618 0
1617 -1618 0
415 -1617 1618 0
